1 51 2
-115 -938 -861 -318 -37 -85 -511 -138 -310 -20 -512 -156 -242 -313 -838 -500 -550 -651 -657 -246 -582 -27 -765 -239 -260 -998 -549 -805 -942 -624 -301 -347 -167 -633 -413 -957 -627 -278 -565 -325 -933 -174 -915 -796 -496 -163 -523 -29 -904 -380 0 
-972 -3 -150 -681 -983 -897 -399 -763 -596 -1000 -563 -813 -734 -677 -81 -439 -441 -278 -324 -720 -465 -919 -237 -663 -694 -3 -377 -236 -128 -285 -748 -745 -885 -326 -595 -97 -299 -816 -409 -767 -139 -738 -56 -169 -571 -785 -571 -967 -68 -570 0 
1199 1072 1189 1198 906 783 951 811 901 821 1268 1083 997 1011 773 840 957 874 1062 982 1047 1077 1058 712 859 935 733 1162 912 899 870 1212 900 1031 965 1027 1056 1292 1110 1132 1226 872 867 914 1011 995 997 988 1102 1107 1 
24873 
